code/vi_44_39_0-2-.sol
Optimal (within gap tolerance) - objective value -25 - solution time 0
15 x(1,1,15) 1 0
35 x(3,1,38) 1 0
51 x(1,2,32) 1 0
57 x(3,2,17) 1 0
87 x(1,3,26) 1 0
88 x(3,3,9) 1 0
123 x(1,4,25) 1 0
124 x(3,4,0) 1 0
144 C 25 -1
